letting n =  10
letting blocks =  [[1, 3], [1, 5], [1, 7], [1, 8], [1, 9], [2, 4], [2, 6], [2, 9], [3, 2], [3, 8], [3, 9], [4, 2], [4, 7], [4, 9], [5, 1], [5, 3], [5, 7], [5, 9], [5, 10], [6, 3], [6, 4], [6, 6], [6, 7], [6, 8], [6, 10], [7, 1], [7, 2], [7, 3], [7, 4], [7, 6], [7, 8], [8, 1], [8, 4], [8, 6], [8, 7], [8, 8], [8, 10], [9, 1], [9, 3], [9, 4], [9, 5], [9, 10], [10, 1], [10, 2], [10, 3], [10, 4], [10, 6], [10, 9]]
